1 1 3 2 3 4
2 1 3 8 9 21
3 1 3 6 12 13
4 1 3 5 10 11
5 1 3 7 27 31
6 1 3 24 45 70
7 1 2 16 22
8 1 3 18 41 60
9 1 3 20 37 39
10 1 1 22
11 1 3 14 15 90
12 1 2 17 44
13 1 3 15 54 86
14 1 3 19 28 33
15 1 3 23 43 71
16 1 1 48
17 1 2 26 30
18 1 2 32 34
19 1 1 35
20 1 3 25 29 78
21 1 1 50
22 1 1 55
23 1 2 81 113
24 1 3 56 82 83
25 1 3 52 53 79
26 1 1 99
27 1 2 69 103
28 1 2 63 100
29 1 1 105
30 1 1 62
31 1 2 38 100
32 1 3 40 58 68
33 1 1 78
34 1 3 36 46 49
35 1 2 64 95
36 1 1 47
37 1 3 52 67 81
38 1 1 77
39 1 1 45
40 1 1 109
41 1 3 42 63 85
42 1 1 118
43 1 1 51
44 1 1 104
45 1 2 61 84
46 1 2 80 92
47 1 3 50 73 96
48 1 1 113
49 1 1 96
50 1 1 117
51 1 2 77 105
52 1 1 74
53 1 2 57 101
54 1 1 73
55 1 1 66
56 1 1 65
57 1 1 59
58 1 1 69
59 1 2 115 117
60 1 1 97
61 1 1 92
62 1 1 109
63 1 1 107
64 1 1 96
65 1 1 111
66 1 1 94
67 1 1 110
68 1 1 75
69 1 1 78
70 1 1 72
71 1 1 77
72 1 1 91
73 1 1 89
74 1 1 76
75 1 1 87
76 1 1 97
77 1 1 92
78 1 1 87
79 1 1 98
80 1 1 108
81 1 1 115
82 1 3 97 102 106
83 1 1 108
84 1 1 107
85 1 1 88
86 1 1 112
87 1 1 115
88 1 1 94
89 1 1 103
90 1 1 120
91 1 1 94
92 1 3 93 98 121
93 1 1 119
94 1 1 101
95 1 1 100
96 1 2 103 116
97 1 1 110
98 1 1 111
99 1 2 102 113
100 1 1 110
101 1 1 105
102 1 2 114 116
103 1 1 106
104 1 1 112
105 1 1 118
106 1 1 107
107 1 1 108
108 1 1 109
109 1 1 114
110 1 1 112
111 1 2 114 120
112 1 1 117
113 1 1 119
114 1 1 119
115 1 1 116
116 1 1 121
117 1 1 120
118 1 1 121
119 1 1 122
120 1 1 122
121 1 1 122
122 1 0 
